c A SAT instance generated from a 3-CNF formula that had 28 clauses and 7 variables
p cnf 7 28
7 2 -5 0
4 7 -6 0
3 5 7 0
-5 -1 4 0
-4 -2 -3 0
-3 1 6 0
4 -7 2 0
-2 7 -6 0
-1 -6 -4 0
4 -1 7 0
-5 2 1 0
2 -7 -1 0
7 1 -6 0
-4 2 -5 0
-4 -5 -3 0
4 -7 -6 0
5 -2 -1 0
4 -6 -5 0
3 5 4 0
1 -4 -7 0
-1 4 -7 0
-4 -3 7 0
6 7 5 0
4 1 2 0
1 6 -7 0
4 3 -2 0
-3 5 6 0
3 4 -1 0
